# Solution for model GasLib-40
# Objective value = 1.0702667879646777e+01
loadshed[innode_1] 0
loadshed[innode_2] 0
loadshed[innode_3] 0
loadshed[innode_4] 0
loadshed[innode_5] 0
loadshed[innode_6] 0
loadshed[innode_7] 0
loadshed[innode_8] 0
loadshed[source_1] -3.0948462824132950e-01
loadshed[source_2] 8.3328636133639278e-02
loadshed[source_3] 2.9385571425425405e-01
loadshed[sink_1] 0
loadshed[sink_2] 0
loadshed[sink_3] 0
loadshed[sink_4] 0
loadshed[sink_5] 0
loadshed[sink_6] 0
loadshed[sink_7] 0
loadshed[sink_8] 0
loadshed[sink_9] 0
loadshed[sink_10] 0
loadshed[sink_11] 0
loadshed[sink_12] 0.654430647417892
loadshed[sink_13] 0
loadshed[sink_14] 0
loadshed[sink_15] 0
loadshed[sink_16] 0
loadshed[sink_17] 0
loadshed[sink_18] 0
loadshed[sink_19] 0
loadshed[sink_20] 0
loadshed[sink_21] 0
loadshed[sink_22] 0
loadshed[sink_23] 0
loadshed[sink_24] 0
loadshed[sink_25] 0
loadshed[sink_26] 0
loadshed[sink_27] 0
loadshed[sink_28] 0
loadshed[sink_29] 0
flow[source_1,sink_3] 2.0701678862440184e+02
flow[innode_1,sink_16] 1.6354166666666970e+01
flow[innode_6,sink_13] 2.8446203819447717e+00
flow[sink_13,sink_14] -1.3509546284721896e+01
flow[sink_14,sink_10] -2.9863712951388564e+01
flow[sink_25,sink_26] 1.7576153435551035e+02
flow[sink_26,sink_9] 1.2177387881520683e+02
flow[sink_9,sink_18] 1.0541971214854016e+02
flow[sink_26,sink_4] 3.7633488873636878e+01
flow[sink_4,sink_20] 0
flow[sink_18,sink_6] 8.9065545481873485e+01
flow[sink_25,innode_8] -1.7430845529106548e+02
flow[sink_6,sink_7] 4.0003045481872959e+01
flow[sink_6,sink_22] 3.2708333333333641e+01
flow[sink_7,sink_24] 3.8359832120353225e+01
flow[sink_22,sink_1] 1.6354166666666970e+01
flow[sink_24,sink_21] 2.2005665453686561e+01
flow[sink_21,sink_12] 5.6514987870198921e+00
flow[sink_7,sink_5] -1.4710953305146930e+01
flow[sink_5,sink_17] -31.0651199718136
flow[sink_17,sink_4] -2.1279322206970210e+01
flow[sink_17,sink_8] -2.6139964431510027e+01
flow[sink_3,sink_23] 16.3541666666697
flow[sink_8,sink_20] -4.2494131098176695e+01
flow[sink_25,sink_20] 5.8848297764843522e+01
flow[sink_25,sink_15] -79.5001638778995
flow[sink_15,sink_29] 0
flow[sink_29,sink_28] 1.6354166666667879e+01
flow[sink_29,sink_2] 1.1220849721123284e+02
flow[sink_2,sink_15] 9.5854330544566167e+01
flow[sink_29,innode_7] -1.4491683054456738e+02
flow[innode_4,sink_19] 9.5280379618055747e+01
flow[sink_19,innode_3] 3.8515658772914016e+01
flow[innode_4,innode_5] 1.6354166666679703e+01
flow[sink_27,innode_5] -1.6354166666679703e+01
flow[sink_27,sink_19] 0
flow[sink_10,sink_11] 3.2708333333333641e+01
flow[sink_10,innode_2] -4.0410554178474854e+01
flow[sink_10,innode_3] -3.8515658772914016e+01
flow[innode_6,sink_25] -2.8446203819447717e+00
flow[sink_11,innode_1] 1.6354166666666970e+01
flow[sink_19,innode_2] 4.0410554178474854e+01
flow[source_3,innode_4] 1.1163454628473545e+02
flow[source_2,innode_7] 1.4491683054456738e+02
flow[sink_3,innode_8] 1.7430845529106548e+02
pressure[innode_1] 7.4865633048890686e+01
pressure[innode_2] 7.7153199045881593e+01
pressure[innode_3] 77.0679104809542
pressure[innode_4] 81.01325
pressure[innode_5] 8.1002000741808772e+01
pressure[innode_6] 7.3596328099856649e+01
pressure[innode_7] 81.01325
pressure[innode_8] 8.0321271958908326e+01
pressure[source_1] 81.01325
pressure[source_2] 81.01325
pressure[source_3] 81.01325
pressure[sink_1] 4.5635273269357967e+01
pressure[sink_2] 7.4294924624633822e+01
pressure[sink_3] 8.0321271958908326e+01
pressure[sink_4] 5.6432727279011573e+01
pressure[sink_5] 5.3305374857893710e+01
pressure[sink_6] 4.7736350879745338e+01
pressure[sink_7] 4.7187204418107875e+01
pressure[sink_8] 5.6605830518615761e+01
pressure[sink_9] 5.3929065517403281e+01
pressure[sink_10] 7.5017334356494231e+01
pressure[sink_11] 7.4865633048890686e+01
pressure[sink_12] 1.0132499999999998e+00
pressure[sink_13] 7.3580646183071210e+01
pressure[sink_14] 7.3604822666906614e+01
pressure[sink_15] 7.3981981361359985e+01
pressure[sink_16] 73.843983214073
pressure[sink_17] 5.5619501750657228e+01
pressure[sink_18] 5.0114666127089727e+01
pressure[sink_19] 7.7153199045881593e+01
pressure[sink_20] 5.9567073849675367e+01
pressure[sink_21] 3.0243625761551116e+00
pressure[sink_22] 4.6699042411712973e+01
pressure[sink_23] 8.0156553947248540e+01
pressure[sink_24] 3.2680548753530818e+00
pressure[sink_25] 7.3596328099856649e+01
pressure[sink_26] 6.1217546454223069e+01
pressure[sink_27] 8.0866291377726043e+01
pressure[sink_28] 7.6842010220347063e+01
pressure[sink_29] 7.7137292493964239e+01
interdiction[source_1,sink_3] 0
interdiction[innode_1,sink_16] 0
interdiction[innode_6,sink_13] 0
interdiction[sink_13,sink_14] 0
interdiction[sink_14,sink_10] 0
interdiction[sink_25,sink_26] 0
interdiction[sink_26,sink_9] 0
interdiction[sink_9,sink_18] 0
interdiction[sink_26,sink_4] 0
interdiction[sink_4,sink_20] 1
interdiction[sink_18,sink_6] 0
interdiction[sink_25,innode_8] 0
interdiction[sink_6,sink_7] 0
interdiction[sink_6,sink_22] 0
interdiction[sink_7,sink_24] 0
interdiction[sink_22,sink_1] 0
interdiction[sink_24,sink_21] 0
interdiction[sink_21,sink_12] 0
interdiction[sink_7,sink_5] 0
interdiction[sink_5,sink_17] 0
interdiction[sink_17,sink_4] 0
interdiction[sink_17,sink_8] 0
interdiction[sink_3,sink_23] 0
interdiction[sink_8,sink_20] 0
interdiction[sink_25,sink_20] 0
interdiction[sink_25,sink_15] 0
interdiction[sink_15,sink_29] 1
interdiction[sink_29,sink_28] 0
interdiction[sink_29,sink_2] 0
interdiction[sink_2,sink_15] 0
interdiction[sink_29,innode_7] 0
interdiction[innode_4,sink_19] 0
interdiction[sink_19,innode_3] 0
interdiction[innode_4,innode_5] 0
interdiction[sink_27,innode_5] 0
interdiction[sink_27,sink_19] 1
interdiction[sink_10,sink_11] 0
interdiction[sink_10,innode_2] 0
interdiction[sink_10,innode_3] 0
interdiction[innode_6,sink_25] 0
interdiction[sink_11,innode_1] 0
interdiction[sink_19,innode_2] 0
interdiction[source_3,innode_4] 0
interdiction[source_2,innode_7] 0
interdiction[sink_3,innode_8] 0
WCcheckFlow[source_1,sink_3] 39
WCcheckFlow[innode_1,sink_16] 1
WCcheckFlow[innode_6,sink_13] 13
WCcheckFlow[sink_13,sink_14] 12
WCcheckFlow[sink_14,sink_10] 11
WCcheckFlow[sink_25,sink_26] 15
WCcheckFlow[sink_26,sink_9] 13
WCcheckFlow[sink_9,sink_18] 12
WCcheckFlow[sink_26,sink_4] 1
WCcheckFlow[sink_4,sink_20] 0
WCcheckFlow[sink_18,sink_6] 11
WCcheckFlow[sink_25,innode_8] -36
WCcheckFlow[sink_6,sink_7] 8
WCcheckFlow[sink_6,sink_22] 2
WCcheckFlow[sink_7,sink_24] 3
WCcheckFlow[sink_22,sink_1] 1
WCcheckFlow[sink_24,sink_21] 2
WCcheckFlow[sink_21,sink_12] 1
WCcheckFlow[sink_7,sink_5] 4
WCcheckFlow[sink_5,sink_17] 3
WCcheckFlow[sink_17,sink_4] 0
WCcheckFlow[sink_17,sink_8] 2
WCcheckFlow[sink_3,sink_23] 1
WCcheckFlow[sink_8,sink_20] 1
WCcheckFlow[sink_25,sink_20] 0
WCcheckFlow[sink_25,sink_15] 6
WCcheckFlow[sink_15,sink_29] 0
WCcheckFlow[sink_29,sink_28] 1
WCcheckFlow[sink_29,sink_2] -4
WCcheckFlow[sink_2,sink_15] -5
WCcheckFlow[sink_29,innode_7] 2
WCcheckFlow[innode_4,sink_19] -4
WCcheckFlow[sink_19,innode_3] -5
WCcheckFlow[innode_4,innode_5] 2
WCcheckFlow[sink_27,innode_5] -1
WCcheckFlow[sink_27,sink_19] 0
WCcheckFlow[sink_10,sink_11] 3
WCcheckFlow[sink_10,innode_2] 1
WCcheckFlow[sink_10,innode_3] 6
WCcheckFlow[innode_6,sink_25] -14
WCcheckFlow[sink_11,innode_1] 2
WCcheckFlow[sink_19,innode_2] 0
WCcheckFlow[source_3,innode_4] -1
WCcheckFlow[source_2,innode_7] -1
WCcheckFlow[sink_3,innode_8] 37
